[201, 59, 133, 263, 223, 268, 192, 271, 386, 303, 140, 184, 310, 343, 181, 324, 264, 162, 137, 200, 286, 280, 383, 337, 172, 258, 219, 261, 188, 214, 213, 172, 71, 155, 330, 44, 183, 227, 407, 48, 193, 206, 275, 298, 372, 144, 300, 192, 161, 183, 214, 95, 326, 275, 409, 101, 255, 190, 266, 188, 263, 301, 204, 61, 215, 54, 125, 165, 115, 346, 381, 257, 219, 178, 381, 225, 378, 178, 230, 102, 139, 95, 236, 221, 240, 220, 96, 121, 269, 309, 273, 200, 188, 296, 279, 318, 200, 190, 310, 234]